Version identifier: 22.1.1.0 | 2022-11-28 | 9160aff4d
CPXPARAM_ClockType                               1
CPXPARAM_Read_DataCheck                          1
CPXPARAM_Threads                                 1
CPXPARAM_Simplex_Tolerances_Optimality           1.0000000000000001e-09
CPXPARAM_TimeLimit                               7200
CPXPARAM_MIP_Tolerances_AbsMIPGap                0
CPXPARAM_MIP_Tolerances_MIPGap                   0
CPXPARAM_MIP_Tolerances_Integrality              0
Found incumbent of value 0.000000 after 1.06 sec. (464.95 ticks)
Tried aggregator 2 times.
Aggregator has done 552 substitutions...
MIQP Presolve eliminated 2864636 rows and 842 columns.
MIQP Presolve modified 548325 coefficients.
Aggregator did 552 substitutions.
Reduced MIQP has 6173344 rows, 147076 columns, and 22291030 nonzeros.
Reduced MIQP has 132368 binaries, 14708 generals, 0 SOSs, and 0 indicators.
Reduced MIQP objective Q matrix has 14708 nonzeros.
Presolve time = 699.68 sec. (293297.55 ticks)
Probing time = 0.82 sec. (60.28 ticks)
Tried aggregator 1 time.
Presolve has eliminated 0 rows and 0 columns...
Reduced MIQP has 6173344 rows, 147076 columns, and 22291030 nonzeros.
Reduced MIQP has 132368 binaries, 14708 generals, 0 SOSs, and 0 indicators.
Reduced MIQP objective Q matrix has 14708 nonzeros.
Presolve time = 111.92 sec. (30773.63 ticks)
Classifier predicts products in MIQP should be linearized.
Probing time = 0.77 sec. (60.28 ticks)
Clique table members: 5981069.
MIP emphasis: balance optimality and feasibility.
MIP search method: dynamic search.
Parallel mode: none, using 1 thread.
